old_stuff_2018/exercises/ws15/cnf_exercise3/factoring1.dimacs
p cnf 29 109
c Factors encoded in variables 1-3 and 4-6
2 3 0
5 6 0
-7 0
8 0
-18 10 12 0
-18 -10 -12 0
18 10 -12 0
18 -10 12 0
-10 -12 19 0
10 12 -19 0
10 -19 0
12 -19 0
-20 11 13 19 0
-20 -11 -13 19 0
-20 -11 13 -19 0
-20 11 -13 -19 0
20 -11 -13 -19 0
20 11 13 -19 0
20 11 -13 19 0
20 -11 13 19 0
-11 -13 21 0
-11 -19 21 0
-13 -19 21 0
11 13 -21 0
11 19 -21 0
13 19 -21 0
-22 14 21 0
-22 -14 -21 0
22 14 -21 0
22 -14 21 0
-14 -21 23 0
14 21 -23 0
14 -23 0
21 -23 0
-24 20 15 0
-24 -20 -15 0
24 20 -15 0
24 -20 15 0
-20 -15 25 0
20 15 -25 0
20 -25 0
15 -25 0
-26 22 16 25 0
-26 -22 -16 25 0
-26 -22 16 -25 0
-26 22 -16 -25 0
26 -22 -16 -25 0
26 22 16 -25 0
26 22 -16 25 0
26 -22 16 25 0
-22 -16 27 0
-22 -25 27 0
-16 -25 27 0
22 16 -27 0
22 25 -27 0
16 25 -27 0
-28 23 17 27 0
-28 -23 -17 27 0
-28 -23 17 -27 0
-28 23 -17 -27 0
28 -23 -17 -27 0
28 23 17 -27 0
28 23 -17 27 0
28 -23 17 27 0
-23 -17 29 0
-23 -27 29 0
-17 -27 29 0
23 17 -29 0
23 27 -29 0
17 27 -29 0
9 -1 -4 0
-9 1 0
-9 4 0
10 -2 -4 0
-10 2 0
-10 4 0
11 -3 -4 0
-11 3 0
-11 4 0
12 -1 -5 0
-12 1 0
-12 5 0
13 -2 -5 0
-13 2 0
-13 5 0
14 -3 -5 0
-14 3 0
-14 5 0
15 -1 -6 0
-15 1 0
-15 6 0
16 -2 -6 0
-16 2 0
-16 6 0
17 -3 -6 0
-17 3 0
-17 6 0
9 -8 0
-9 8 0
18 -8 0
-18 8 0
24 -8 0
-24 8 0
26 -8 0
-26 8 0
28 -7 0
-28 7 0
29 -7 0
-29 7 0
